20 44
4 8 11 14 18
8 13
3 4 6 11
2 5 16
0 2 5 7 9 12 16 17 18
3 4 11 12 17
2 7 11 15
4 6 11 13
0 1 10
4 10 12 14 15 17 19
8 9 16 18
0 2 5 6 7 16
4 5 9 14 15
1 7 14 16
0 9 12 13
6 9 12 17 19
3 4 10 11 13
4 5 9 15
0 4 10
9 15
